100
125
87
86
86
85
82
82
81
81
78
77
77
76
76
74
74
74
73
72
72
72
71
70
70
70
70
69
69
68
68
67
67
66
65
65
64
64
63
62
62
61
61
59
58
57
56
56
55
54
54
54
53
53
52
51
51
50
50
49
49
49
49
49
49
49
48
47
47
46
46
46
46
45
45
43
43
42
42
41
41
40
39
38
36
36
36
36
36
35
35
34
33
33
33
32
31
29
28
28
27
27
